\ENCODING=ISO-8859-1
\Problem name: IloCplex

Minimize
 obj: x9 + x10 + x11
Subject To
 c1:  x1 + x2  = 1
 c2:  x3 + x4  = 1
 c3:  x5 + x6  = 1
 c4:  x7 + x8  = 1
 c5:  x1 + x7 <= 1
 c6:  x3 + x5 <= 1
 c7:  x3 + x5 <= 1
 c8:  x1 + x7 <= 1
 c9:  x2 + x8 <= 1
 c10: x4 + x6 <= 1
 c11: x4 + x6 <= 1
 c12: x2 + x8 <= 1
 c13: 30 x1 <= 60
 c14: 30 x2 <= 30
 c15: 30 x3 <= 60
 c16: 30 x4 <= 30
 c17: 60 x5 <= 60
 c18: 60 x6 <= 30
 c19: 30 x7 <= 60
 c20: 30 x8 <= 30
 c21: x9 >= 0
 c22: x9 >= 0
 c23: - x1 + x3 + x9 >= 0
 c24: x1 - x3 + x9 >= 0
 c25: x1 - x3 + x9 >= 0
 c26: - x1 + x3 + x9 >= 0
 c27: x9 >= 0
 c28: x9 >= 0
 c29: x10 >= 0
 c30: x10 >= 0
 c31: x11 >= 0
 c32: x11 >= 0
 c33: x9 >= 0
 c34: x9 >= 0
 c35: - x2 + x4 + x9 >= 0
 c36: x2 - x4 + x9 >= 0
 c37: x2 - x4 + x9 >= 0
 c38: - x2 + x4 + x9 >= 0
 c39: x9 >= 0
 c40: x9 >= 0
 c41: x10 >= 0
 c42: x10 >= 0
 c43: x11 >= 0
 c44: x11 >= 0
Bounds
 0 <= x1 <= 1
 0 <= x2 <= 1
 0 <= x3 <= 1
 0 <= x4 <= 1
 0 <= x5 <= 1
 0 <= x6 <= 1
 0 <= x7 <= 1
 0 <= x8 <= 1
 0 <= x9 <= 1
 0 <= x10 <= 1
 0 <= x11 <= 1
Binaries
 x1  x2  x3  x4  x5  x6  x7  x8  x9  x10  x11 
End
